
--- Job M-F_15.gms Start 01/22/23 13:36:47 41.2.0 5110e5ff WEX-WEI x86 64bit/MS Windows
--- Applying:
    C:\GAMS\41\gmsprmNT.txt
--- GAMS Parameters defined
    Input "G:\Mi unidad\TFG\src\gams\M-F_15.gms"
    PageSize 0
    ScrDir "G:\Mi unidad\TFG\src\gams\225a\"
    SysDir C:\GAMS\41\
    LogOption 3
    ErrMsg 1
    ErrorLog 99
    IDE 1
    LstTitleLeftAligned 1
Licensee: GAMS Demo license for Antonio Sevilla Sastre   G221121|0002CO-GEN
          UCM, Spain                                               DL079880
          C:\Users\Antonio\Documents\GAMS\gamslice.txt
          antsev01@ucm.es, Antonio Sevilla Sastre                          
          Demo license for demonstration and instructional purposes only
Processor information: 1 socket(s), 14 core(s), and 20 thread(s) available
GAMS 41.2.0   Copyright (C) 1987-2022 GAMS Development. All rights reserved
--- Starting compilation
--- M-F_15.gms(145) 3 Mb
--- Starting execution: elapsed 0:00:00.020
--- Generating MIP model modelo1
--- M-F_15.gms(143) 4 Mb
---   1,223 rows  547 columns  2,502 non-zeroes
---   272 discrete-columns
--- Range statistics (absolute non-zero finite values)
--- RHS       [min, max] : [ 1.000E+00, 9.900E+01] - Zero values observed as well
--- Bound     [min, max] : [ 1.000E+00, 1.000E+00] - Zero values observed as well
--- Matrix    [min, max] : [ 1.000E+00, 9.900E+01]
--- Executing CPLEX (Solvelink=2): elapsed 0:00:00.070

IBM ILOG CPLEX   41.2.0 5110e5ff Nov 14, 2022          WEI x86 64bit/MS Window

--- *** This solver runs with a demo license. No commercial use.
--- GMO setup time: 0.00s
--- Space for names approximately 0.04 Mb
--- Use option 'names no' to turn use of names off
--- GMO memory 0.70 Mb (peak 0.70 Mb)
--- Dictionary memory 0.00 Mb
--- Cplex 22.1.0.0 link memory 0.02 Mb (peak 0.11 Mb)
--- Starting Cplex

Version identifier: 22.1.0.0 | 2022-03-09 | 1a383f8ce
CPXPARAM_Advance                                 0
CPXPARAM_Threads                                 1
CPXPARAM_MIP_Display                             4
CPXPARAM_MIP_Pool_Capacity                       0
CPXPARAM_MIP_Tolerances_AbsMIPGap                0
Generic callback                                 0x50
Found incumbent of value 32.000000 after 0.00 sec. (0.05 ticks)
Tried aggregator 2 times.
MIP Presolve eliminated 1189 rows and 516 columns.
Aggregator did 5 substitutions.
Reduced MIP has 28 rows, 26 columns, and 77 nonzeros.
Reduced MIP has 8 binaries, 0 generals, 0 SOSs, and 0 indicators.
Presolve time = 0.00 sec. (0.89 ticks)
Probing fixed 0 vars, tightened 9 bounds.
Probing time = 0.00 sec. (0.02 ticks)
Tried aggregator 3 times.
MIP Presolve eliminated 12 rows and 10 columns.
Aggregator did 3 substitutions.
Reduced MIP has 13 rows, 13 columns, and 33 nonzeros.
Reduced MIP has 2 binaries, 0 generals, 0 SOSs, and 0 indicators.
Presolve time = 0.00 sec. (0.05 ticks)
Probing time = 0.00 sec. (0.00 ticks)
Tried aggregator 1 time.
Detecting symmetries...
MIP Presolve eliminated 1 rows and 1 columns.
Reduced MIP has 12 rows, 12 columns, and 31 nonzeros.
Reduced MIP has 1 binaries, 0 generals, 0 SOSs, and 0 indicators.
Presolve time = 0.00 sec. (0.02 ticks)
Probing time = 0.00 sec. (0.00 ticks)
MIP emphasis: balance optimality and feasibility.
MIP search method: dynamic search.
Parallel mode: none, using 1 thread.
Initializing dual steep norms . . .

Iteration log . . .
Iteration:     1   Dual objective     =             0.000000
Root relaxation solution time = 0.00 sec. (0.01 ticks)

        Nodes                                         Cuts/
   Node  Left     Objective  IInf  Best Integer    Best Bound    ItCnt     Gap

*     0+    0                           32.0000        0.0000           100.00%
Found incumbent of value 32.000000 after 0.02 sec. (1.12 ticks)
*     0     0      integral     0        0.0000        0.0000       11    0.00%
Elapsed time = 0.02 sec. (1.12 ticks, tree = 0.00 MB)
Found incumbent of value 0.000000 after 0.02 sec. (1.12 ticks)

Root node processing (before b&c):
  Real time             =    0.02 sec. (1.13 ticks)
Sequential b&c:
  Real time             =    0.00 sec. (0.00 ticks)
                          ------------
Total (root+branch&cut) =    0.02 sec. (1.13 ticks)

--- MIP status (101): integer optimal solution.
--- Cplex Time: 0.02sec (det. 1.13 ticks)

--- Fixing integer variables and solving final LP...

Version identifier: 22.1.0.0 | 2022-03-09 | 1a383f8ce
CPXPARAM_Advance                                 2
CPXPARAM_Threads                                 1
CPXPARAM_MIP_Display                             4
CPXPARAM_MIP_Pool_Capacity                       0
CPXPARAM_MIP_Tolerances_AbsMIPGap                0
Tried aggregator 1 time.
LP Presolve eliminated 1209 rows and 532 columns.
Aggregator did 4 substitutions.
Reduced LP has 9 rows, 11 columns, and 23 nonzeros.
Presolve time = 0.00 sec. (0.51 ticks)
Initializing dual steep norms . . .

Iteration log . . .
Iteration:     1   Dual objective     =             0.000000

--- Fixed MIP status (1): optimal.
--- Cplex Time: 0.00sec (det. 0.94 ticks)


Proven optimal solution
MIP Solution:            0.000000    (11 iterations, 0 nodes)
Final Solve:             0.000000    (8 iterations)

Best possible:           0.000000
Absolute gap:            0.000000
Relative gap:            0.000000

--- Reading solution for model modelo1
--- Executing after solve: elapsed 0:00:00.120
--- Generating MIP model modelo1
--- M-F_15.gms(144) 4 Mb
---   1,223 rows  547 columns  2,502 non-zeroes
---   272 discrete-columns
--- Range statistics (absolute non-zero finite values)
--- RHS       [min, max] : [ 1.000E+00, 9.900E+01] - Zero values observed as well
--- Bound     [min, max] : [ 1.000E+00, 1.000E+00] - Zero values observed as well
--- Matrix    [min, max] : [ 1.000E+00, 9.900E+01]
--- Executing CPLEX (Solvelink=2): elapsed 0:00:00.170

IBM ILOG CPLEX   41.2.0 5110e5ff Nov 14, 2022          WEI x86 64bit/MS Window

--- *** This solver runs with a demo license. No commercial use.
--- GMO setup time: 0.00s
--- Space for names approximately 0.04 Mb
--- Use option 'names no' to turn use of names off
--- GMO memory 0.70 Mb (peak 0.70 Mb)
--- Dictionary memory 0.00 Mb
--- Cplex 22.1.0.0 link memory 0.02 Mb (peak 0.11 Mb)
--- Starting Cplex

Version identifier: 22.1.0.0 | 2022-03-09 | 1a383f8ce
CPXPARAM_Advance                                 0
CPXPARAM_Threads                                 1
CPXPARAM_MIP_Display                             4
CPXPARAM_MIP_Pool_Capacity                       0
CPXPARAM_MIP_Tolerances_AbsMIPGap                0
Generic callback                                 0x50
Found incumbent of value 0.000000 after 0.00 sec. (0.07 ticks)
Tried aggregator 2 times.
MIP Presolve eliminated 1189 rows and 514 columns.
Aggregator did 5 substitutions.
Reduced MIP has 28 rows, 28 columns, and 77 nonzeros.
Reduced MIP has 11 binaries, 0 generals, 0 SOSs, and 0 indicators.
Presolve time = 0.00 sec. (0.90 ticks)
Probing fixed 0 vars, tightened 9 bounds.
Probing time = 0.00 sec. (0.02 ticks)
Tried aggregator 3 times.
MIP Presolve eliminated 12 rows and 10 columns.
Aggregator did 2 substitutions.
Reduced MIP has 14 rows, 16 columns, and 35 nonzeros.
Reduced MIP has 5 binaries, 0 generals, 0 SOSs, and 0 indicators.
Presolve time = 0.00 sec. (0.06 ticks)
Probing time = 0.00 sec. (0.00 ticks)
Tried aggregator 1 time.
Detecting symmetries...
MIP Presolve eliminated 1 rows and 1 columns.
Reduced MIP has 13 rows, 15 columns, and 33 nonzeros.
Reduced MIP has 4 binaries, 0 generals, 0 SOSs, and 0 indicators.
Presolve time = 0.00 sec. (0.02 ticks)
Probing time = 0.00 sec. (0.00 ticks)
MIP emphasis: balance optimality and feasibility.
MIP search method: dynamic search.
Parallel mode: none, using 1 thread.
Tried aggregator 1 time.
No LP presolve or aggregator reductions.
Presolve time = 0.00 sec. (0.01 ticks)
Initializing dual steep norms . . .

Iteration log . . .
Iteration:     1   Dual objective     =             3.000000
Root relaxation solution time = 0.00 sec. (0.02 ticks)

        Nodes                                         Cuts/
   Node  Left     Objective  IInf  Best Integer    Best Bound    ItCnt     Gap

*     0+    0                            0.0000        3.0000              --- 
Found incumbent of value 0.000000 after 0.00 sec. (1.17 ticks)
*     0     0      integral     0        3.0000        3.0000       11    0.00%
Elapsed time = 0.00 sec. (1.17 ticks, tree = 0.00 MB)
Found incumbent of value 3.000000 after 0.00 sec. (1.17 ticks)

Root node processing (before b&c):
  Real time             =    0.00 sec. (1.18 ticks)
Sequential b&c:
  Real time             =    0.00 sec. (0.00 ticks)
                          ------------
Total (root+branch&cut) =    0.00 sec. (1.18 ticks)

--- MIP status (101): integer optimal solution.
--- Cplex Time: 0.00sec (det. 1.18 ticks)

--- Fixing integer variables and solving final LP...

Version identifier: 22.1.0.0 | 2022-03-09 | 1a383f8ce
CPXPARAM_Advance                                 2
CPXPARAM_Threads                                 1
CPXPARAM_MIP_Display                             4
CPXPARAM_MIP_Pool_Capacity                       0
CPXPARAM_MIP_Tolerances_AbsMIPGap                0
Tried aggregator 1 time.
LP Presolve eliminated 1213 rows and 536 columns.
Aggregator did 3 substitutions.
Reduced LP has 6 rows, 8 columns, and 15 nonzeros.
Presolve time = 0.00 sec. (0.51 ticks)
Initializing dual steep norms . . .

Iteration log . . .
Iteration:     1   Dual objective     =             3.000000

--- Fixed MIP status (1): optimal.
--- Cplex Time: 0.00sec (det. 0.93 ticks)


Proven optimal solution
MIP Solution:            3.000000    (11 iterations, 0 nodes)
Final Solve:             3.000000    (4 iterations)

Best possible:           3.000000
Absolute gap:            0.000000
Relative gap:            0.000000

--- Reading solution for model modelo1
*** Status: Normal completion
--- Job M-F_15.gms Stop 01/22/23 13:36:47 elapsed 0:00:00.240
